20J7M/DAT/20J7MNNL-3.dat
20 7
21.0949 21.0949
25.4094 25.4094
14.9585 14.9585
20.5834 20.5834
23.3261 23.3261
32.4435 32.4435
31.6235 31.6235
18.8996 18.8996
24.403 24.403
21.3764 21.3764
27.02 27.02
17.5764 17.5764
23.7155 23.7155
28.7235 28.7235
28.2311 28.2311
27.7341 27.7341
28.9122 28.9122
24.0146 24.0146
19.5337 19.5337
32.6069 32.6069
492.1863