20J7M/SOL/20J7MNNL-3.sol
solution status: optimal solution found
objective value:                     70.3123285714286
x#1#1                                               1 	(obj:0)
x#2#2                              0.0959397478323549 	(obj:0)
x#2#5                               0.904060252167645 	(obj:0)
x#3#4                                               1 	(obj:0)
x#4#1                               0.177952691419855 	(obj:0)
x#4#4                               0.822047308580145 	(obj:0)
x#5#5                                               1 	(obj:0)
x#6#2                                               1 	(obj:0)
x#7#7                                               1 	(obj:0)
x#8#4                                               1 	(obj:0)
x#9#6                                               1 	(obj:0)
x#10#1                                              1 	(obj:0)
x#11#1                              0.894824468647562 	(obj:0)
x#11#6                              0.105175531352438 	(obj:0)
x#12#6                                              1 	(obj:0)
x#13#6                                              1 	(obj:0)
x#14#3                                              1 	(obj:0)
x#15#2                                              1 	(obj:0)
x#16#3                               0.93597824648048 	(obj:0)
x#16#6                             0.0640217535195202 	(obj:0)
x#17#3                              0.540613107467238 	(obj:0)
x#17#7                              0.459386892532762 	(obj:0)
x#18#5                                              1 	(obj:0)
x#19#4                                              1 	(obj:0)
x#20#2                              0.220810845031485 	(obj:0)
x#20#7                              0.779189154968515 	(obj:0)
z                                    70.3123285714286 	(obj:1)
